[[69, 78, 67, 68, 76, 77, 79, 88, 89, 90, 99, 98, 97, 96], [87, 95, 86, 85, 84, 94, 93, 92, 91, 83, 82, 73, 75], [74, 64, 65, 66, 56, 58, 59, 49, 57, 55, 46, 47], [38, 48, 39, 40, 41, 32, 31, 30, 29, 37, 28, 19, 21, 22], [20, 13, 11, 10, 2, 12, 3, 4, 14, 5, 6, 15], [23, 24, 25, 16, 7, 8, 9, 18, 17, 27, 26, 35, 36, 44], [34, 33, 43, 42, 45, 54, 53, 52, 51, 50, 60, 61, 62, 63, 72, 81, 80, 70, 71]]